output ((["act = array2d(GUARD, TIME, [\n"]++[show_int(2,fix(act[g,t]))++if t==T then ",\n" else ", " endif | g in GUARD, t in TIME, ])++["]);\n"])++["end = "++format(end)++";"];
int: T = 10;
set of int: TIME = 1..10;
set of int: GUARD = 1..8;
array [GUARD,TIME] of int: act;
int: end;
